Translating instance to solver...

Set parameter TimeLimit to value 28800
Gurobi Optimizer version 11.0.2 build v11.0.2rc0 (linux64 - "Ubuntu 22.04.4 LTS")

CPU model: Intel(R) Xeon(R) Gold 5120 CPU @ 2.20GHz, instruction set [SSE2|AVX|AVX2|AVX512]
Thread count: 28 physical cores, 56 logical processors, using up to 28 threads

Academic license 2463511 - for non-commercial use only - registered to lu___@cefet-rj.br
Optimize a model with 24835 rows, 13713 columns and 58929 nonzeros
Model fingerprint: 0x11ae8da5
Variable types: 1 continuous, 13712 integer (13680 binary)
Coefficient statistics:
  Matrix range     [1e+00, 1e+05]
  Objective range  [3e-01, 8e-01]
  Bounds range     [1e+00, 3e+01]
  RHS range        [1e+00, 8e+01]
Presolve removed 21476 rows and 12274 columns
Presolve time: 0.28s
Presolved: 3359 rows, 1439 columns, 10983 nonzeros
Variable types: 0 continuous, 1439 integer (1408 binary)

Root relaxation: objective 1.654758e+00, 885 iterations, 0.02 seconds (0.03 work units)

    Nodes    |    Current Node    |     Objective Bounds      |     Work
 Expl Unexpl |  Obj  Depth IntInf | Incumbent    BestBd   Gap | It/Node Time

     0     0    1.65476    0   81          -    1.65476      -     -    0s
H    0     0                       2.5735640    1.65476  35.7%     -    0s
H    0     0                       2.2676730    1.65476  27.0%     -    0s
     0     0    1.68267    0   80    2.26767    1.68267  25.8%     -    0s
     0     0    1.68658    0   83    2.26767    1.68658  25.6%     -    0s
     0     0    1.68773    0  120    2.26767    1.68773  25.6%     -    0s
     0     0    1.69718    0  109    2.26767    1.69718  25.2%     -    0s
     0     0    1.70704    0  104    2.26767    1.70704  24.7%     -    0s
     0     0    1.71719    0   93    2.26767    1.71719  24.3%     -    0s
     0     0    1.72275    0  190    2.26767    1.72275  24.0%     -    0s
     0     0    1.72524    0  187    2.26767    1.72524  23.9%     -    0s
     0     0    1.76295    0  186    2.26767    1.76295  22.3%     -    0s
     0     0    1.77723    0  252    2.26767    1.77723  21.6%     -    0s
     0     0    1.81414    0  186    2.26767    1.81414  20.0%     -    1s
     0     0    1.81414    0  184    2.26767    1.81414  20.0%     -    1s
     0     0    1.81414    0   74    2.26767    1.81414  20.0%     -    1s
     0     0    1.81414    0  185    2.26767    1.81414  20.0%     -    1s
     0     0    1.81414    0  167    2.26767    1.81414  20.0%     -    1s
     0     0    1.81414    0  169    2.26767    1.81414  20.0%     -    1s
     0     0    1.81414    0  244    2.26767    1.81414  20.0%     -    1s
     0     0    1.81414    0  348    2.26767    1.81414  20.0%     -    1s
     0     0    1.81414    0  369    2.26767    1.81414  20.0%     -    1s
     0     0    1.81414    0  333    2.26767    1.81414  20.0%     -    1s
     0     0    1.82674    0  413    2.26767    1.82674  19.4%     -    1s
     0     0    1.84928    0  319    2.26767    1.84928  18.5%     -    2s
     0     0    1.85193    0  442    2.26767    1.85193  18.3%     -    2s
     0     0    1.85193    0  459    2.26767    1.85193  18.3%     -    2s
     0     0    1.87951    0  327    2.26767    1.87951  17.1%     -    2s
     0     0    1.87951    0  326    2.26767    1.87951  17.1%     -    2s
     0     2    1.87951    0  326    2.26767    1.87951  17.1%     -    2s
   317   133    2.12356   11   68    2.26767    1.87951  17.1%   116    5s

Cutting planes:
  Learned: 133
  Cover: 1
  Implied bound: 154
  Clique: 5
  MIR: 45
  StrongCG: 1
  Zero half: 5
  RLT: 127
  Relax-and-lift: 44
  BQP: 109

Explored 1373 nodes (111403 simplex iterations) in 5.99 seconds (5.00 work units)
Thread count was 28 (of 56 available processors)

Solution count 2: 2.26767 2.57356 

Optimal solution found (tolerance 1.00e-04)
Best objective 2.267673000000e+00, best bound 2.267673000000e+00, gap 0.0000%

Solver Wallclock Time (for this epsilon): 5.99272894859314 s
Python wallclock Time (for this epsilon): 7.81153678894043 s


Total Elapsed Time (since program call): 67.50367856025696 s

Results:

I = 2.267673 mA
C = 80.0 points
C ~= 32.0 km^2

Minimum Epsilon for this instance = 10
Maximum Epsilon for this instance = 100

Current Epsilon = 80


Preprocessing Time (for this epsilon): 0.005191802978515625 s


Updated solution vectors:
sol_I = [-0.611782,-1.061782,-1.061782,-1.061782,-1.061782,-1.511782,-1.511782,-2.267673]
sol_C = [12.0,28.0,47.0,47.0,52.0,70.0,70.0,80.0]
sol_eps = [10,20,30,40,50,60,70,80]
sol_gap = [0.0,0.0,0.0,0.0,7.10526315561566e-08,0.0,0.0,0.0]
